words_hard_train/4442.qaiger
aag 73 16 0 1 57
2
4
8
10
14
16
20
22
28
30
44
74
76
106
110
122
146
6 2 4
12 8 10
18 14 16
24 20 22
26 19 25
32 28 30
34 26 33
36 13 34
38 6 37
40 7 36
42 39 41
46 42 44
48 43 45
50 12 35
52 51 37
54 53 5
56 49 55
58 27 32
60 59 35
62 60 10
64 18 24
66 65 27
68 67 31
70 61 11
72 69 71
78 74 76
80 79 22
82 78 23
84 83 14
86 81 85
88 87 16
90 66 30
92 89 91
94 72 93
96 63 95
98 52 4
100 96 99
102 56 101
104 47 103
108 78 106
112 110 44
114 113 40
116 109 114
118 112 41
120 117 119
124 121 122
126 79 114
128 106 122
130 127 128
132 129 114
134 131 133
136 125 135
138 104 137
140 119 127
142 140 123
144 143 134
146 139 145
i0 2 y1[5]
i1 1 x1[5]
i2 2 y1[4]
i3 1 x1[4]
i4 2 y1[1]
i5 1 x1[1]
i6 2 y1[2]
i7 1 x1[2]
i8 2 y1[3]
i9 1 x1[3]
i10 1 x1[6]
i11 2 y1[0]
i12 1 x1[0]
i13 2 y1[7]
i14 2 y1[6]
i15 1 x1[7]
o0 bv[0]
c
simplified
  <=
    subtract
      and
        1 x1
        2 y1
      1
    >> 1
      1 x1
