words_hard_train/4442.qaiger.qdimacs
p cnf 73 172
a 2 5 38 8 11 15 22 61 0
e 1 3 4 6 7 9 10 12 13 14 16 17 18 19 20 21 23 24 25 26 27 28 29 30 31 32 33 34 35 36 37 39 40 41 42 43 44 45 46 47 48 49 50 51 52 53 54 55 56 57 58 59 60 62 63 64 65 66 67 68 69 70 71 72 73 0
-1 -2 3 0
1 -3 0
2 -3 0
-4 -5 6 0
4 -6 0
5 -6 0
-7 -8 9 0
7 -9 0
8 -9 0
-10 -11 12 0
10 -12 0
11 -12 0
9 12 13 0
-9 -13 0
-12 -13 0
-14 -15 16 0
14 -16 0
15 -16 0
-13 16 17 0
13 -17 0
-16 -17 0
6 -17 18 0
-6 -18 0
17 -18 0
-3 18 19 0
3 -19 0
-18 -19 0
3 -18 20 0
-3 -20 0
18 -20 0
19 20 21 0
-19 -21 0
-20 -21 0
-21 -22 23 0
21 -23 0
22 -23 0
21 22 24 0
-21 -24 0
-22 -24 0
-6 17 25 0
6 -25 0
-17 -25 0
25 18 26 0
-25 -26 0
-18 -26 0
26 2 27 0
-26 -27 0
-2 -27 0
24 27 28 0
-24 -28 0
-27 -28 0
13 -16 29 0
-13 -29 0
16 -29 0
29 17 30 0
-29 -30 0
-17 -30 0
-30 -5 31 0
30 -31 0
5 -31 0
-9 -12 32 0
9 -32 0
12 -32 0
32 13 33 0
-32 -33 0
-13 -33 0
33 15 34 0
-33 -34 0
-15 -34 0
30 5 35 0
-30 -35 0
-5 -35 0
34 35 36 0
-34 -36 0
-35 -36 0
-37 -38 39 0
37 -39 0
38 -39 0
39 -11 40 0
-39 -40 0
11 -40 0
-39 11 41 0
39 -41 0
-11 -41 0
41 -7 42 0
-41 -42 0
7 -42 0
40 42 43 0
-40 -43 0
-42 -43 0
43 -8 44 0
-43 -44 0
8 -44 0
-33 -15 45 0
33 -45 0
15 -45 0
44 45 46 0
-44 -46 0
-45 -46 0
-36 46 47 0
36 -47 0
-46 -47 0
31 47 48 0
-31 -48 0
-47 -48 0
-26 -2 49 0
26 -49 0
2 -49 0
-48 49 50 0
48 -50 0
-49 -50 0
-28 50 51 0
28 -51 0
-50 -51 0
23 51 52 0
-23 -52 0
-51 -52 0
-39 -53 54 0
39 -54 0
53 -54 0
-55 -22 56 0
55 -56 0
22 -56 0
56 -20 57 0
-56 -57 0
20 -57 0
54 -57 58 0
-54 -58 0
57 -58 0
-56 20 59 0
56 -59 0
-20 -59 0
58 59 60 0
-58 -60 0
-59 -60 0
60 -61 62 0
-60 -62 0
61 -62 0
39 -57 63 0
-39 -63 0
57 -63 0
-53 -61 64 0
53 -64 0
61 -64 0
63 -64 65 0
-63 -65 0
64 -65 0
64 -57 66 0
-64 -66 0
57 -66 0
65 66 67 0
-65 -67 0
-66 -67 0
62 67 68 0
-62 -68 0
-67 -68 0
-52 68 69 0
52 -69 0
-68 -69 0
59 63 70 0
-59 -70 0
-63 -70 0
-70 61 71 0
70 -71 0
-61 -71 0
71 -67 72 0
-71 -72 0
67 -72 0
69 72 73 0
-69 -73 0
-72 -73 0
73 0
